units			lj
boundary		p p p
atom_style		bond
special_bonds   	fene
bond_style      	fene
pair_style      	lj/cut 2.5

read_data      	10mers.data

mass 			1 1

bond_coeff     		1 30 1.5 1.0 1.0
pair_coeff 		1 1 1.0 1.0 2.5
neighbor        	0.2 bin
neigh_modify    	check yes every 1

compute		1 all msd
compute		2 all rdf 100 1 1 cutoff 2.5
compute 		3 all gyration

timestep		0.001
thermo 		100
thermo_style 		custom step etotal enthalpy vol temp press density c_3[4]
dump                   MyDump all custom 1000 dump.atom id type x y z vx vy vz 


fix 			1 all ave/time 10 5 50 c_1[4] file msd.txt
fix 			3 all ave/time 10 50 1000 c_2[*] file rdf.txt mode vector

fix 			npt all npt temp 1.0 0.2 0.1 iso 0.0 0.0 1		
run             	100000

write_data 		10mer_simulated.data
